c Grid graph 4x19
p edge 76 129
e 1 2
e 1 20
e 2 3
e 2 21
e 3 4
e 3 22
e 4 5
e 4 23
e 5 6
e 5 24
e 6 7
e 6 25
e 7 8
e 7 26
e 8 9
e 8 27
e 9 10
e 9 28
e 10 11
e 10 29
e 11 12
e 11 30
e 12 13
e 12 31
e 13 14
e 13 32
e 14 15
e 14 33
e 15 16
e 15 34
e 16 17
e 16 35
e 17 18
e 17 36
e 18 19
e 18 37
e 19 38
e 20 21
e 20 39
e 21 22
e 21 40
e 22 23
e 22 41
e 23 24
e 23 42
e 24 25
e 24 43
e 25 26
e 25 44
e 26 27
e 26 45
e 27 28
e 27 46
e 28 29
e 28 47
e 29 30
e 29 48
e 30 31
e 30 49
e 31 32
e 31 50
e 32 33
e 32 51
e 33 34
e 33 52
e 34 35
e 34 53
e 35 36
e 35 54
e 36 37
e 36 55
e 37 38
e 37 56
e 38 57
e 39 40
e 39 58
e 40 41
e 40 59
e 41 42
e 41 60
e 42 43
e 42 61
e 43 44
e 43 62
e 44 45
e 44 63
e 45 46
e 45 64
e 46 47
e 46 65
e 47 48
e 47 66
e 48 49
e 48 67
e 49 50
e 49 68
e 50 51
e 50 69
e 51 52
e 51 70
e 52 53
e 52 71
e 53 54
e 53 72
e 54 55
e 54 73
e 55 56
e 55 74
e 56 57
e 56 75
e 57 76
e 58 59
e 59 60
e 60 61
e 61 62
e 62 63
e 63 64
e 64 65
e 65 66
e 66 67
e 67 68
e 68 69
e 69 70
e 70 71
e 71 72
e 72 73
e 73 74
e 74 75
e 75 76
